50
0 1 0.51 0.3
0 2 0.64 0.3
0 3 0.63 0.36
0 4 0.58 0.26
0 5 0.66 0.24
0 6 0.76 0.27
0 7 0.53 0.28
0 8 0.58 0.28
0 9 0.57 0.18
0 10 0.54 0.31
0 11 0.53 0.22
0 12 0.68 0.23
0 13 0.58 0.24
0 14 0.16 0.08
0 15 0.58 0.27
0 16 0.54 0.26
0 17 0.34 0.22
0 18 0.44 0.16
0 19 0.66 0.28
0 20 0.48 0.3
0 21 0.7 0.32
0 22 0.31 0.18
0 23 0.63 0.31
0 24 0.62 0.37
0 25 0.43 0.3
0 26 0.81 0.19
0 27 0.67 0.24
0 28 0.5 0.3
0 29 0.58 0.16
0 30 0.66 0.2
0 31 0.47 0.14
0 32 0.41 0.32
0 33 0.7 0.26
0 34 0.61 0.34
0 35 0.58 0.21
0 36 0.66 0.32
0 37 0.53 0.28
0 38 0.6 0.37
0 39 0.8 0.3
0 40 0.66 0.33
0 41 0.61 0.22
0 42 0.56 0.3
0 43 0.48 0.2
0 44 0.48 0.16
0 45 0.61 0.24
0 46 0.43 0.2
0 47 0.6 0.25
0 48 0.76 0.22
0 49 0.48 0.22
1 2 0.28 0.2
1 3 0.54 0.06
1 4 0.44 0.17
1 5 0.68 0.26
1 6 0.66 0.16
1 7 0.59 0.27
1 8 0.69 0.18
1 9 0.62 0.24
1 10 0.52 0.24
1 11 0.68 0.24
1 12 0.55 0.18
1 13 0.76 0.22
1 14 0.67 0.34
1 15 0.34 0.28
1 16 0.34 0.26
1 17 0.37 0.23
1 18 0.52 0.33
1 19 0.72 0.27
1 20 0.64 0.2
1 21 0.56 0.28
1 22 0.5 0.23
1 23 0.44 0.22
1 24 0.29 0.16
1 25 0.28 0.15
1 26 0.64 0.24
1 27 0.69 0.26
1 28 0.6 0.31
1 29 0.7 0.26
1 30 0.61 0.31
1 31 0.43 0.27
1 32 0.46 0.19
1 33 0.56 0.23
1 34 0.45 0.27
1 35 0.54 0.3
1 36 0.52 0.28
1 37 0.58 0.21
1 38 0.54 0.26
1 39 0.49 0.3
1 40 0.48 0.32
1 41 0.7 0.27
1 42 0.62 0.36
1 43 0.5 0.1
1 44 0.63 0.34
1 45 0.58 0.33
1 46 0.58 0.31
1 47 0.71 0.19
1 48 0.51 0.24
1 49 0.58 0.28
2 3 0.65 0.26
2 4 0.66 0.24
2 5 0.65 0.16
2 6 0.68 0.25
2 7 0.46 0.16
2 8 0.62 0.29
2 9 0.48 0.2
2 10 0.63 0.19
2 11 0.7 0.1
2 12 0.27 0.11
2 13 0.6 0.26
2 14 0.48 0.24
2 15 0.62 0.18
2 16 0.62 0.24
2 17 0.56 0.31
2 18 0.55 0.2
2 19 0.52 0.28
2 20 0.49 0.2
2 21 0.62 0.3
2 22 0.53 0.16
2 23 0.66 0.23
2 24 0.56 0.26
2 25 0.56 0.26
2 26 0.59 0.17
2 27 0.62 0.12
2 28 0.32 0.28
2 29 0.42 0.14
2 30 0.62 0.33
2 31 0.54 0.2
2 32 0.53 0.21
2 33 0.54 0.25
2 34 0.66 0.26
2 35 0.59 0.22
2 36 0.54 0.26
2 37 0.41 0.18
2 38 0.63 0.15
2 39 0.43 0.18
2 40 0.67 0.21
2 41 0.62 0.28
2 42 0.54 0.3
2 43 0.62 0.26
2 44 0.57 0.2
2 45 0.52 0.23
2 46 0.56 0.26
2 47 0.73 0.23
2 48 0.69 0.1
2 49 0.71 0.14
3 4 0.65 0.11
3 5 0.49 0.2
3 6 0.13 0.1
3 7 0.56 0.21
3 8 0.76 0.24
3 9 0.73 0.28
3 10 0.58 0.27
3 11 0.66 0.18
3 12 0.48 0.24
3 13 0.62 0.16
3 14 0.76 0.32
3 15 0.52 0.28
3 16 0.51 0.32
3 17 0.55 0.17
3 18 0.58 0.28
3 19 0.66 0.21
3 20 0.26 0.24
3 21 0.6 0.22
3 22 0.63 0.19
3 23 0.62 0.28
3 24 0.5 0.22
3 25 0.46 0.09
3 26 0.58 0.2
3 27 0.57 0.2
3 28 0.72 0.32
3 29 0.76 0.28
3 30 0.44 0.34
3 31 0.57 0.23
3 32 0.22 0.13
3 33 0.48 0.29
3 34 0.77 0.3
3 35 0.48 0.24
3 36 0.69 0.22
3 37 0.34 0.15
3 38 0.47 0.2
3 39 0.52 0.26
3 40 0.51 0.28
3 41 0.46 0.27
3 42 0.5 0.3
3 43 0.45 0.16
3 44 0.39 0.28
3 45 0.55 0.27
3 46 0.42 0.25
3 47 0.81 0.13
3 48 0.48 0.18
3 49 0.55 0.22
4 5 0.5 0.27
4 6 0.52 0.01
4 7 0.4 0.1
4 8 0.54 0.18
4 9 0.82 0.24
4 10 0.58 0.16
4 11 0.51 0.14
4 12 0.79 0.13
4 13 0.74 0.27
4 14 0.55 0.28
4 15 0.78 0.17
4 16 0.71 0.22
4 17 0.66 0.12
4 18 0.66 0.22
4 19 0.69 0.1
4 20 0.78 0.25
4 21 0.69 0.13
4 22 0.71 0.08
4 23 0.57 0.21
4 24 0.72 0.15
4 25 0.72 0.04
4 26 0.63 0.09
4 27 0.51 0.16
4 28 0.78 0.21
4 29 0.48 0.3
4 30 0.79 0.29
4 31 0.66 0.12
4 32 0.7 0.15
4 33 0.48 0.22
4 34 0.86 0.25
4 35 0.51 0.15
4 36 0.52 0.17
4 37 0.58 0.16
4 38 0.43 0.14
4 39 0.49 0.22
4 40 0.46 0.25
4 41 0.55 0.18
4 42 0.78 0.27
4 43 0.46 0.19
4 44 0.65 0.24
4 45 0.58 0.22
4 46 0.72 0.23
4 47 0.42 0.15
4 48 0.84 0.14
4 49 0.46 0.18
5 6 0.42 0.28
5 7 0.46 0.2
5 8 0.6 0.31
5 9 0.79 0.24
5 10 0.3 0.17
5 11 0.74 0.14
5 12 0.76 0.26
5 13 0.4 0.31
5 14 0.52 0.28
5 15 0.69 0.17
5 16 0.59 0.22
5 17 0.56 0.21
5 18 0.77 0.08
5 19 0.7 0.2
5 20 0.62 0.25
5 21 0.76 0.24
5 22 0.62 0.21
5 23 0.64 0.26
5 24 0.56 0.2
5 25 0.65 0.28
5 26 0.61 0.22
5 27 0.69 0.16
5 28 0.52 0.18
5 29 0.6 0.3
5 30 0.58 0.32
5 31 0.58 0.17
5 32 0.54 0.25
5 33 0.34 0.1
5 34 0.57 0.26
5 35 0.46 0.22
5 36 0.86 0.34
5 37 0.42 0.24
5 38 0.54 0.13
5 39 0.5 0.06
5 40 0.68 0.25
5 41 0.64 0.14
5 42 0.72 0.21
5 43 0.7 0.23
5 44 0.64 0.2
5 45 0.5 0.07
5 46 0.68 0.28
5 47 0.5 0.28
5 48 0.34 0.14
5 49 0.5 0.14
6 7 0.64 0.11
6 8 0.63 0.19
6 9 0.6 0.25
6 10 0.45 0.17
6 11 0.67 0.15
6 12 0.56 0.14
6 13 0.49 0.26
6 14 0.64 0.27
6 15 0.63 0.18
6 16 0.58 0.23
6 17 0.66 0.12
6 18 0.59 0.23
6 19 0.79 0.11
6 20 0.39 0.26
6 21 0.56 0.12
6 22 0.76 0.09
6 23 0.52 0.2
6 24 0.37 0.14
6 25 0.59 0.04
6 26 0.71 0.1
6 27 0.44 0.17
6 28 0.6 0.22
6 29 0.74 0.31
6 30 0.46 0.28
6 31 0.44 0.13
6 32 0.35 0.16
6 33 0.61 0.21
6 34 0.64 0.25
6 35 0.61 0.14
6 36 0.73 0.17
6 37 0.47 0.15
6 38 0.6 0.15
6 39 0.65 0.23
6 40 0.5 0.26
6 41 0.57 0.17
6 42 0.63 0.26
6 43 0.32 0.18
6 44 0.51 0.25
6 45 0.42 0.23
6 46 0.55 0.24
6 47 0.76 0.16
6 48 0.37 0.15
6 49 0.42 0.19
7 8 0.68 0.14
7 9 0.54 0.16
7 10 0.42 0.15
7 11 0.68 0.06
7 12 0.4 0.23
7 13 0.46 0.29
7 14 0.69 0.2
7 15 0.62 0.18
7 16 0.5 0.12
7 17 0.49 0.22
7 18 0.64 0.16
7 19 0.5 0.2
7 20 0.78 0.26
7 21 0.55 0.23
7 22 0.74 0.18
7 23 0.46 0.18
7 24 0.61 0.22
7 25 0.4 0.14
7 26 0.52 0.19
7 27 0.62 0.08
7 28 0.74 0.26
7 29 0.7 0.22
7 30 0.61 0.35
7 31 0.75 0.22
7 32 0.54 0.17
7 33 0.57 0.25
7 34 0.74 0.22
7 35 0.52 0.18
7 36 0.73 0.27
7 37 0.42 0.23
7 38 0.5 0.24
7 39 0.56 0.14
7 40 0.62 0.17
7 41 0.42 0.28
7 42 0.54 0.22
7 43 0.79 0.22
7 44 0.48 0.16
7 45 0.72 0.27
7 46 0.61 0.22
7 47 0.68 0.25
7 48 0.79 0.06
7 49 0.53 0.1
8 9 0.69 0.3
8 10 0.65 0.29
8 11 0.66 0.2
8 12 0.8 0.18
8 13 0.54 0.26
8 14 0.64 0.34
8 15 0.56 0.18
8 16 0.64 0.26
8 17 0.48 0.2
8 18 0.75 0.27
8 19 0.64 0.22
8 20 0.68 0.18
8 21 0.62 0.31
8 22 0.61 0.13
8 23 0.63 0.28
8 24 0.66 0.28
8 25 0.57 0.22
8 26 0.34 0.12
8 27 0.64 0.22
8 28 0.32 0.13
8 29 0.51 0.24
8 30 0.72 0.27
8 31 0.67 0.16
8 32 0.57 0.31
8 33 0.75 0.21
8 34 0.42 0.09
8 35 0.68 0.29
8 36 0.42 0.17
8 37 0.45 0.3
8 38 0.62 0.31
8 39 0.82 0.25
8 40 0.5 0.14
8 41 0.68 0.24
8 42 0.64 0.36
8 43 0.75 0.08
8 44 0.72 0.3
8 45 0.52 0.26
8 46 0.62 0.26
8 47 0.86 0.2
8 48 0.44 0.2
8 49 0.79 0.21
9 10 0.6 0.19
9 11 0.6 0.1
9 12 0.66 0.27
9 13 0.39 0.3
9 14 0.54 0.1
9 15 0.83 0.22
9 16 0.4 0.16
9 17 0.53 0.31
9 18 0.38 0.2
9 19 0.42 0.28
9 20 0.49 0.3
9 21 0.6 0.3
9 22 0.66 0.22
9 23 0.54 0.22
9 24 0.4 0.26
9 25 0.44 0.26
9 26 0.52 0.21
9 27 0.76 0.12
9 28 0.8 0.3
9 29 0.62 0.26
9 30 0.67 0.28
9 31 0.48 0.26
9 32 0.64 0.21
9 33 0.73 0.29
9 34 0.48 0.26
9 35 0.77 0.22
9 36 0.48 0.34
9 37 0.66 0.27
9 38 0.44 0.3
9 39 0.6 0.18
9 40 0.54 0.21
9 41 0.5 0.33
9 42 0.59 0.34
9 43 0.36 0.26
9 44 0.7 0.2
9 45 0.63 0.31
9 46 0.52 0.26
9 47 0.64 0.19
9 48 0.54 0.1
9 49 0.63 0.14
10 11 0.48 0.09
10 12 0.82 0.28
10 13 0.7 0.31
10 14 0.56 0.23
10 15 0.45 0.17
10 16 0.58 0.27
10 17 0.68 0.26
10 18 0.62 0.15
10 19 0.4 0.26
10 20 0.58 0.23
10 21 0.62 0.29
10 22 0.32 0.23
10 23 0.6 0.22
10 24 0.54 0.25
10 25 0.62 0.2
10 26 0.31 0.22
10 27 0.58 0.07
10 28 0.78 0.25
10 29 0.72 0.33
10 30 0.4 0.34
10 31 0.73 0.27
10 32 0.56 0.2
10 33 0.64 0.24
10 34 0.48 0.21
10 35 0.7 0.17
10 36 0.64 0.29
10 37 0.68 0.26
10 38 0.59 0.29
10 39 0.48 0.17
10 40 0.64 0.2
10 41 0.76 0.28
10 42 0.73 0.29
10 43 0.5 0.25
10 44 0.59 0.19
10 45 0.58 0.24
10 46 0.5 0.21
10 47 0.44 0.2
10 48 0.64 0.09
10 49 0.58 0.09
11 12 0.5 0.19
11 13 0.64 0.23
11 14 0.58 0.14
11 15 0.73 0.12
11 16 0.34 0.18
11 17 0.69 0.21
11 18 0.4 0.1
11 19 0.18 0.18
11 20 0.44 0.2
11 21 0.54 0.2
11 22 0.58 0.18
11 23 0.52 0.13
11 24 0.66 0.16
11 25 0.62 0.16
11 26 0.64 0.17
11 27 0.38 0.02
11 28 0.54 0.2
11 29 0.6 0.24
11 30 0.62 0.29
11 31 0.58 0.22
11 32 0.62 0.11
11 33 0.4 0.19
11 34 0.76 0.16
11 35 0.53 0.12
11 36 0.8 0.24
11 37 0.5 0.17
11 38 0.36 0.2
11 39 0.44 0.08
11 40 0.52 0.11
11 41 0.4 0.23
11 42 0.45 0.24
11 43 0.62 0.16
11 44 0.66 0.1
11 45 0.54 0.21
11 46 0.24 0.16
11 47 0.48 0.25
11 48 0.46 0.0
11 49 0.57 0.04
12 13 0.7 0.3
12 14 0.7 0.28
12 15 0.51 0.14
12 16 0.65 0.21
12 17 0.72 0.21
12 18 0.47 0.28
12 19 0.53 0.23
12 20 0.74 0.22
12 21 0.42 0.2
12 22 0.5 0.05
12 23 0.54 0.15
12 24 0.44 0.21
12 25 0.63 0.17
12 26 0.76 0.06
12 27 0.74 0.21
12 28 0.48 0.18
12 29 0.69 0.25
12 30 0.76 0.27
12 31 0.36 0.09
12 32 0.54 0.28
12 33 0.54 0.21
12 34 0.4 0.15
12 35 0.32 0.25
12 36 0.4 0.23
12 37 0.5 0.23
12 38 0.68 0.26
12 39 0.54 0.27
12 40 0.4 0.26
12 41 0.48 0.17
12 42 0.52 0.33
12 43 0.66 0.26
12 44 0.37 0.18
12 45 0.51 0.19
12 46 0.67 0.2
12 47 0.68 0.12
12 48 0.42 0.19
12 49 0.55 0.22
13 14 0.42 0.32
13 15 0.48 0.29
13 16 0.69 0.22
13 17 0.62 0.32
13 18 0.55 0.32
13 19 0.46 0.32
13 20 0.67 0.28
13 21 0.78 0.3
13 22 0.61 0.25
13 23 0.74 0.26
13 24 0.65 0.32
13 25 0.59 0.25
13 26 0.82 0.24
13 27 0.83 0.25
13 28 0.74 0.31
13 29 0.79 0.12
13 30 0.54 0.18
13 31 0.64 0.26
13 32 0.71 0.22
13 33 0.34 0.22
13 34 0.68 0.24
13 35 0.45 0.28
13 36 0.71 0.16
13 37 0.59 0.23
13 38 0.68 0.29
13 39 0.62 0.31
13 40 0.76 0.12
13 41 0.64 0.26
13 42 0.5 0.39
13 43 0.74 0.28
13 44 0.58 0.32
13 45 0.58 0.36
13 46 0.58 0.1
13 47 0.32 0.28
13 48 0.74 0.23
13 49 0.76 0.26
14 15 0.42 0.26
14 16 0.52 0.26
14 17 0.5 0.22
14 18 0.46 0.22
14 19 0.68 0.32
14 20 0.64 0.31
14 21 0.54 0.34
14 22 0.44 0.26
14 23 0.61 0.23
14 24 0.46 0.29
14 25 0.59 0.3
14 26 0.8 0.27
14 27 0.72 0.16
14 28 0.37 0.22
14 29 0.56 0.24
14 30 0.7 0.28
14 31 0.63 0.22
14 32 0.57 0.25
14 33 0.56 0.22
14 34 0.48 0.3
14 35 0.7 0.13
14 36 0.71 0.38
14 37 0.58 0.31
14 38 0.76 0.34
14 39 0.78 0.22
14 40 0.82 0.25
14 41 0.68 0.26
14 42 0.4 0.25
14 43 0.32 0.28
14 44 0.54 0.24
14 45 0.5 0.32
14 46 0.59 0.28
14 47 0.65 0.29
14 48 0.68 0.14
14 49 0.6 0.18
15 16 0.68 0.29
15 17 0.49 0.25
15 18 0.73 0.14
15 19 0.56 0.26
15 20 0.63 0.08
15 21 0.58 0.21
15 22 0.42 0.09
15 23 0.63 0.25
15 24 0.58 0.28
15 25 0.58 0.21
15 26 0.76 0.1
15 27 0.35 0.1
15 28 0.61 0.22
15 29 0.6 0.32
15 30 0.51 0.21
15 31 0.7 0.13
15 32 0.54 0.23
15 33 0.62 0.07
15 34 0.74 0.2
15 35 0.57 0.16
15 36 0.72 0.28
15 37 0.42 0.27
15 38 0.76 0.3
15 39 0.56 0.2
15 40 0.68 0.23
15 41 0.44 0.11
15 42 0.52 0.24
15 43 0.68 0.18
15 44 0.46 0.18
15 45 0.81 0.23
15 46 0.68 0.24
15 47 0.63 0.16
15 48 0.36 0.12
15 49 0.4 0.08
16 17 0.71 0.25
16 18 0.18 0.15
16 19 0.4 0.22
16 20 0.63 0.32
16 21 0.54 0.3
16 22 0.66 0.26
16 23 0.52 0.06
16 24 0.63 0.12
16 25 0.62 0.26
16 26 0.58 0.27
16 27 0.44 0.2
16 28 0.64 0.24
16 29 0.37 0.1
16 30 0.71 0.38
16 31 0.64 0.23
16 32 0.54 0.29
16 33 0.58 0.24
16 34 0.56 0.33
16 35 0.75 0.16
16 36 0.65 0.32
16 37 0.64 0.24
16 38 0.56 0.34
16 39 0.66 0.26
16 40 0.65 0.2
16 41 0.64 0.2
16 42 0.39 0.28
16 43 0.5 0.26
16 44 0.7 0.25
16 45 0.66 0.15
16 46 0.38 0.3
16 47 0.7 0.28
16 48 0.58 0.18
16 49 0.63 0.21
17 18 0.59 0.23
17 19 0.53 0.22
17 20 0.64 0.33
17 21 0.62 0.24
17 22 0.52 0.16
17 23 0.51 0.19
17 24 0.36 0.24
17 25 0.09 0.08
17 26 0.47 0.17
17 27 0.67 0.19
17 28 0.72 0.29
17 29 0.37 0.22
17 30 0.46 0.28
17 31 0.51 0.12
17 32 0.49 0.26
17 33 0.36 0.24
17 34 0.72 0.21
17 35 0.55 0.09
17 36 0.47 0.21
17 37 0.58 0.26
17 38 0.46 0.26
17 39 0.66 0.27
17 40 0.61 0.32
17 41 0.48 0.2
17 42 0.52 0.21
17 43 0.48 0.28
17 44 0.35 0.2
17 45 0.53 0.14
17 46 0.68 0.3
17 47 0.4 0.23
17 48 0.48 0.21
17 49 0.48 0.17
18 19 0.22 0.12
18 20 0.45 0.22
18 21 0.56 0.3
18 22 0.62 0.23
18 23 0.34 0.21
18 24 0.49 0.26
18 25 0.56 0.24
18 26 0.51 0.23
18 27 0.38 0.08
18 28 0.62 0.22
18 29 0.55 0.25
18 30 0.58 0.35
18 31 0.53 0.21
18 32 0.36 0.18
18 33 0.73 0.18
18 34 0.6 0.18
18 35 0.57 0.14
18 36 0.48 0.26
18 37 0.48 0.24
18 38 0.6 0.21
18 39 0.62 0.14
18 40 0.56 0.21
18 41 0.7 0.22
18 42 0.21 0.14
18 43 0.32 0.23
18 44 0.53 0.16
18 45 0.68 0.15
18 46 0.4 0.22
18 47 0.52 0.3
18 48 0.64 0.1
18 49 0.52 0.06
19 20 0.5 0.2
19 21 0.5 0.23
19 22 0.4 0.18
19 23 0.56 0.28
19 24 0.71 0.25
19 25 0.44 0.14
19 26 0.71 0.19
19 27 0.56 0.2
19 28 0.65 0.31
19 29 0.42 0.2
19 30 0.68 0.33
19 31 0.53 0.22
19 32 0.58 0.25
19 33 0.58 0.22
19 34 0.58 0.3
19 35 0.35 0.24
19 36 0.7 0.27
19 37 0.46 0.26
19 38 0.54 0.24
19 39 0.48 0.26
19 40 0.54 0.29
19 41 0.53 0.18
19 42 0.43 0.26
19 43 0.54 0.29
19 44 0.62 0.28
19 45 0.68 0.27
19 46 0.42 0.33
19 47 0.3 0.2
19 48 0.54 0.18
19 49 0.44 0.18
20 21 0.6 0.29
20 22 0.55 0.17
20 23 0.63 0.33
20 24 0.5 0.34
20 25 0.72 0.29
20 26 0.48 0.18
20 27 0.51 0.18
20 28 0.58 0.27
20 29 0.5 0.26
20 30 0.18 0.13
20 31 0.46 0.21
20 32 0.48 0.3
20 33 0.74 0.15
20 34 0.64 0.27
20 35 0.46 0.24
20 36 0.72 0.35
20 37 0.48 0.25
20 38 0.54 0.33
20 39 0.52 0.28
20 40 0.56 0.28
20 41 0.55 0.19
20 42 0.24 0.21
20 43 0.46 0.1
20 44 0.48 0.2
20 45 0.61 0.31
20 46 0.56 0.18
20 47 0.73 0.24
20 48 0.6 0.2
20 49 0.32 0.16
21 22 0.68 0.21
21 23 0.46 0.32
21 24 0.38 0.26
21 25 0.55 0.16
21 26 0.76 0.22
21 27 0.64 0.22
21 28 0.3 0.2
21 29 0.44 0.22
21 30 0.62 0.16
21 31 0.58 0.18
21 32 0.58 0.28
21 33 0.44 0.14
21 34 0.6 0.35
21 35 0.71 0.26
21 36 0.6 0.29
21 37 0.62 0.27
21 38 0.48 0.27
21 39 0.38 0.28
21 40 0.42 0.31
21 41 0.14 0.1
21 42 0.62 0.31
21 43 0.24 0.24
21 44 0.58 0.26
21 45 0.43 0.28
21 46 0.58 0.36
21 47 0.6 0.28
21 48 0.6 0.2
21 49 0.48 0.24
22 23 0.59 0.2
22 24 0.44 0.22
22 25 0.61 0.12
22 26 0.63 0.01
22 27 0.57 0.16
22 28 0.8 0.13
22 29 0.4 0.24
22 30 0.62 0.22
22 31 0.61 0.04
22 32 0.62 0.23
22 33 0.88 0.16
22 34 0.54 0.19
22 35 0.4 0.23
22 36 0.72 0.25
22 37 0.5 0.18
22 38 0.61 0.22
22 39 0.61 0.24
22 40 0.73 0.27
22 41 0.68 0.12
22 42 0.58 0.28
22 43 0.44 0.21
22 44 0.74 0.2
22 45 0.76 0.14
22 46 0.59 0.15
22 47 0.29 0.07
22 48 0.55 0.18
22 49 0.38 0.17
23 24 0.15 0.06
23 25 0.55 0.22
23 26 0.3 0.21
23 27 0.28 0.15
23 28 0.34 0.18
23 29 0.67 0.16
23 30 0.49 0.32
23 31 0.64 0.24
23 32 0.4 0.24
23 33 0.59 0.28
23 34 0.44 0.29
23 35 0.58 0.1
23 36 0.61 0.26
23 37 0.28 0.18
23 38 0.51 0.31
23 39 0.31 0.2
23 40 0.32 0.14
23 41 0.6 0.26
23 42 0.55 0.22
23 43 0.66 0.29
23 44 0.49 0.19
23 45 0.54 0.21
23 46 0.39 0.29
23 47 0.65 0.22
23 48 0.37 0.13
23 49 0.47 0.17
24 25 0.4 0.16
24 26 0.45 0.23
24 27 0.43 0.18
24 28 0.49 0.24
24 29 0.57 0.22
24 30 0.62 0.38
24 31 0.49 0.26
24 32 0.3 0.24
24 33 0.44 0.22
24 34 0.42 0.32
24 35 0.73 0.16
24 36 0.46 0.29
24 37 0.42 0.24
24 38 0.66 0.28
24 39 0.46 0.14
24 40 0.47 0.2
24 41 0.52 0.26
24 42 0.63 0.28
24 43 0.62 0.26
24 44 0.47 0.25
24 45 0.64 0.27
24 46 0.53 0.32
24 47 0.5 0.16
24 48 0.22 0.16
24 49 0.62 0.2
25 26 0.38 0.13
25 27 0.58 0.18
25 28 0.63 0.25
25 29 0.46 0.3
25 30 0.55 0.31
25 31 0.59 0.16
25 32 0.58 0.19
25 33 0.45 0.25
25 34 0.73 0.21
25 35 0.64 0.17
25 36 0.38 0.13
25 37 0.51 0.19
25 38 0.55 0.18
25 39 0.75 0.24
25 40 0.7 0.27
25 41 0.57 0.21
25 42 0.61 0.29
25 43 0.46 0.22
25 44 0.44 0.26
25 45 0.44 0.21
25 46 0.76 0.22
25 47 0.49 0.19
25 48 0.39 0.16
25 49 0.57 0.2
26 27 0.52 0.15
26 28 0.6 0.12
26 29 0.7 0.25
26 30 0.64 0.23
26 31 0.63 0.05
26 32 0.57 0.24
26 33 0.58 0.17
26 34 0.5 0.2
26 35 0.66 0.24
26 36 0.36 0.26
26 37 0.46 0.19
26 38 0.28 0.23
26 39 0.48 0.24
26 40 0.56 0.26
26 41 0.78 0.13
26 42 0.42 0.28
26 43 0.8 0.2
26 44 0.52 0.21
26 45 0.48 0.15
26 46 0.69 0.14
26 47 0.65 0.08
26 48 0.6 0.17
26 49 0.6 0.17
27 28 0.49 0.18
27 29 0.61 0.26
27 30 0.42 0.27
27 31 0.5 0.2
27 32 0.52 0.13
27 33 0.5 0.17
27 34 0.55 0.14
27 35 0.64 0.1
27 36 0.63 0.22
27 37 0.56 0.19
27 38 0.54 0.22
27 39 0.54 0.1
27 40 0.6 0.13
27 41 0.53 0.21
27 42 0.46 0.22
27 43 0.4 0.18
27 44 0.5 0.12
27 45 0.65 0.23
27 46 0.62 0.18
27 47 0.63 0.23
27 48 0.65 0.02
27 49 0.19 0.02
28 29 0.47 0.34
28 30 0.48 0.14
28 31 0.35 0.17
28 32 0.58 0.31
28 33 0.43 0.26
28 34 0.58 0.22
28 35 0.64 0.24
28 36 0.48 0.25
28 37 0.56 0.31
28 38 0.48 0.26
28 39 0.62 0.12
28 40 0.52 0.19
28 41 0.44 0.22
28 42 0.77 0.3
28 43 0.54 0.21
28 44 0.68 0.26
28 45 0.2 0.16
28 46 0.3 0.26
28 47 0.67 0.2
28 48 0.5 0.2
28 49 0.65 0.16
29 30 0.66 0.3
29 31 0.48 0.28
29 32 0.61 0.24
29 33 0.5 0.29
29 34 0.64 0.33
29 35 0.77 0.26
29 36 0.68 0.28
29 37 0.73 0.3
29 38 0.53 0.24
29 39 0.53 0.32
29 40 0.54 0.24
29 41 0.58 0.3
29 42 0.74 0.38
29 43 0.66 0.16
29 44 0.65 0.32
29 45 0.63 0.25
29 46 0.6 0.22
29 47 0.69 0.31
29 48 0.79 0.24
29 49 0.54 0.28
30 31 0.57 0.26
30 32 0.55 0.32
30 33 0.64 0.28
30 34 0.46 0.36
30 35 0.44 0.37
30 36 0.76 0.34
30 37 0.43 0.26
30 38 0.36 0.31
30 39 0.56 0.26
30 40 0.38 0.3
30 41 0.57 0.26
30 42 0.42 0.34
30 43 0.4 0.23
30 44 0.57 0.33
30 45 0.57 0.3
30 46 0.69 0.28
30 47 0.73 0.29
30 48 0.72 0.29
30 49 0.5 0.29
31 32 0.52 0.2
31 33 0.78 0.12
31 34 0.76 0.23
31 35 0.68 0.21
31 36 0.54 0.29
31 37 0.4 0.14
31 38 0.43 0.26
31 39 0.55 0.23
31 40 0.55 0.3
31 41 0.67 0.08
31 42 0.5 0.24
31 43 0.5 0.24
31 44 0.63 0.16
31 45 0.15 0.1
31 46 0.54 0.19
31 47 0.32 0.11
31 48 0.38 0.22
31 49 0.69 0.21
32 33 0.7 0.3
32 34 0.64 0.27
32 35 0.51 0.18
32 36 0.47 0.32
32 37 0.12 0.06
32 38 0.5 0.29
32 39 0.7 0.19
32 40 0.72 0.22
32 41 0.61 0.28
32 42 0.54 0.3
32 43 0.34 0.26
32 44 0.17 0.16
32 45 0.38 0.23
32 46 0.38 0.12
32 47 0.78 0.26
32 48 0.52 0.11
32 49 0.54 0.15
33 34 0.78 0.27
33 35 0.78 0.23
33 36 0.52 0.27
33 37 0.69 0.26
33 38 0.58 0.23
33 39 0.38 0.16
33 40 0.76 0.26
33 41 0.3 0.04
33 42 0.52 0.17
33 43 0.68 0.13
33 44 0.62 0.2
33 45 0.63 0.17
33 46 0.64 0.31
33 47 0.66 0.23
33 48 0.56 0.19
33 49 0.64 0.15
34 35 0.72 0.2
34 36 0.74 0.08
34 37 0.52 0.32
34 38 0.64 0.36
34 39 0.48 0.24
34 40 0.74 0.23
34 41 0.74 0.31
34 42 0.46 0.32
34 43 0.5 0.17
34 44 0.62 0.22
34 45 0.78 0.33
34 46 0.73 0.19
34 47 0.44 0.26
34 48 0.4 0.16
34 49 0.6 0.12
35 36 0.7 0.28
35 37 0.63 0.24
35 38 0.38 0.22
35 39 0.46 0.2
35 40 0.66 0.23
35 41 0.57 0.27
35 42 0.58 0.12
35 43 0.8 0.26
35 44 0.68 0.18
35 45 0.54 0.23
35 46 0.62 0.24
35 47 0.46 0.3
35 48 0.67 0.12
35 49 0.72 0.08
36 37 0.44 0.28
36 38 0.54 0.31
36 39 0.48 0.32
36 40 0.8 0.28
36 41 0.46 0.31
36 42 0.48 0.4
36 43 0.44 0.25
36 44 0.3 0.16
36 45 0.46 0.29
36 46 0.7 0.26
36 47 0.44 0.32
36 48 0.68 0.24
36 49 0.44 0.2
37 38 0.62 0.3
37 39 0.59 0.25
37 40 0.6 0.28
37 41 0.64 0.22
37 42 0.42 0.31
37 43 0.46 0.31
37 44 0.29 0.2
37 45 0.5 0.17
37 46 0.26 0.13
37 47 0.66 0.25
37 48 0.64 0.17
37 49 0.44 0.21
38 39 0.2 0.14
38 40 0.28 0.17
38 41 0.62 0.27
38 42 0.7 0.34
38 43 0.6 0.33
38 44 0.67 0.3
38 45 0.28 0.2
38 46 0.6 0.24
38 47 0.37 0.29
38 48 0.81 0.2
38 49 0.7 0.24
39 40 0.48 0.19
39 41 0.52 0.2
39 42 0.73 0.27
39 43 0.49 0.24
39 44 0.78 0.18
39 45 0.48 0.13
39 46 0.68 0.24
39 47 0.43 0.22
39 48 0.68 0.08
39 49 0.73 0.12
40 41 0.46 0.22
40 42 0.76 0.35
40 43 0.52 0.22
40 44 0.63 0.21
40 45 0.56 0.32
40 46 0.68 0.22
40 47 0.44 0.34
40 48 0.68 0.11
40 49 0.55 0.15
41 42 0.59 0.21
41 43 0.38 0.17
41 44 0.44 0.16
41 45 0.57 0.18
41 46 0.44 0.27
41 47 0.53 0.19
41 48 0.64 0.23
41 49 0.34 0.19
42 43 0.38 0.3
42 44 0.6 0.3
42 45 0.65 0.14
42 46 0.52 0.36
42 47 0.73 0.35
42 48 0.72 0.24
42 49 0.56 0.2
43 44 0.51 0.26
43 45 0.65 0.3
43 46 0.68 0.28
43 47 0.61 0.28
43 48 0.69 0.16
43 49 0.28 0.18
44 45 0.48 0.24
44 46 0.55 0.26
44 47 0.66 0.27
44 48 0.66 0.1
44 49 0.45 0.1
45 46 0.5 0.29
45 47 0.47 0.21
45 48 0.53 0.21
45 49 0.72 0.21
46 47 0.66 0.22
46 48 0.7 0.16
46 49 0.6 0.16
47 48 0.7 0.25
47 49 0.44 0.24
48 49 0.76 0.04
